NAME          DCAP_2_4_3_200_SS107
ROWS
 N  OBJ
 L  CON1
 L  CON2
 L  CON3
 L  CON4
 L  CON5
 L  CON6
 L  CON7
 L  CON8
 L  CON9
 L  CON10
 L  CON11
 L  CON12
 E  CON13
 E  CON14
 E  CON15
 E  CON16
 E  CON17
 E  CON18
 E  CON19
 E  CON20
 E  CON21
 E  CON22
 E  CON23
 E  CON24
COLUMNS
    x[1,1]    OBJ       6.180167      CON1      1.000000    
    x[1,1]    CON7      -1.000000     CON8      -1.000000   
    x[1,1]    CON9      -1.000000   
    x[1,2]    OBJ       6.563535      CON2      1.000000    
    x[1,2]    CON8      -1.000000     CON9      -1.000000   
    x[1,3]    OBJ       7.443064      CON3      1.000000    
    x[1,3]    CON9      -1.000000   
    x[2,1]    OBJ       6.732585      CON4      1.000000    
    x[2,1]    CON10     -1.000000     CON11     -1.000000   
    x[2,1]    CON12     -1.000000   
    x[2,2]    OBJ       5.039546      CON5      1.000000    
    x[2,2]    CON11     -1.000000     CON12     -1.000000   
    x[2,3]    OBJ       6.054841      CON6      1.000000    
    x[2,3]    CON12     -1.000000   
    MARKER    'MARKER'                'INTORG'
    u[1,1]    OBJ       48.076654     CON1      -1.000000   
    u[1,2]    OBJ       20.066487     CON2      -1.000000   
    u[1,3]    OBJ       32.230043     CON3      -1.000000   
    u[2,1]    OBJ       49.996186     CON4      -1.000000   
    u[2,2]    OBJ       49.466655     CON5      -1.000000   
    u[2,3]    OBJ       27.484319     CON6      -1.000000   
    y[1,1,1]  OBJ       8.206594      CON7      0.947575    
    y[1,1,1]  CON13     1.000000    
    y[1,1,2]  OBJ       6.902455      CON8      1.251774    
    y[1,1,2]  CON14     1.000000    
    y[1,1,3]  OBJ       9.559906      CON9      0.796733    
    y[1,1,3]  CON15     1.000000    
    y[1,2,1]  OBJ       5.832526      CON7      0.649235    
    y[1,2,1]  CON16     1.000000    
    y[1,2,2]  OBJ       9.025304      CON8      0.627636    
    y[1,2,2]  CON17     1.000000    
    y[1,2,3]  OBJ       8.207367      CON9      0.958800    
    y[1,2,3]  CON18     1.000000    
    y[1,3,1]  OBJ       8.795580      CON7      1.146522    
    y[1,3,1]  CON19     1.000000    
    y[1,3,2]  OBJ       8.027236      CON8      0.988746    
    y[1,3,2]  CON20     1.000000    
    y[1,3,3]  OBJ       9.439384      CON9      0.714906    
    y[1,3,3]  CON21     1.000000    
    y[1,4,1]  OBJ       7.981980      CON7      1.043907    
    y[1,4,1]  CON22     1.000000    
    y[1,4,2]  OBJ       8.566797      CON8      1.109681    
    y[1,4,2]  CON23     1.000000    
    y[1,4,3]  OBJ       6.209371      CON9      1.203908    
    y[1,4,3]  CON24     1.000000    
    y[2,1,1]  OBJ       6.225710      CON10     0.947575    
    y[2,1,1]  CON13     1.000000    
    y[2,1,2]  OBJ       6.622091      CON11     1.251774    
    y[2,1,2]  CON14     1.000000    
    y[2,1,3]  OBJ       6.283642      CON12     0.796733    
    y[2,1,3]  CON15     1.000000    
    y[2,2,1]  OBJ       9.956456      CON10     0.649235    
    y[2,2,1]  CON16     1.000000    
    y[2,2,2]  OBJ       5.501754      CON11     0.627636    
    y[2,2,2]  CON17     1.000000    
    y[2,2,3]  OBJ       6.844197      CON12     0.958800    
    y[2,2,3]  CON18     1.000000    
    y[2,3,1]  OBJ       6.954268      CON10     1.146522    
    y[2,3,1]  CON19     1.000000    
    y[2,3,2]  OBJ       7.222603      CON11     0.988746    
    y[2,3,2]  CON20     1.000000    
    y[2,3,3]  OBJ       9.982940      CON12     0.714906    
    y[2,3,3]  CON21     1.000000    
    y[2,4,1]  OBJ       7.214347      CON10     1.043907    
    y[2,4,1]  CON22     1.000000    
    y[2,4,2]  OBJ       7.802899      CON11     1.109681    
    y[2,4,2]  CON23     1.000000    
    y[2,4,3]  OBJ       6.897420      CON12     1.203908    
    y[2,4,3]  CON24     1.000000    
    z[1,1]    OBJ       600.778063    CON13     1.000000    
    z[1,2]    OBJ       939.621582    CON14     1.000000    
    z[1,3]    OBJ       578.646252    CON15     1.000000    
    z[2,1]    OBJ       728.281453    CON16     1.000000    
    z[2,2]    OBJ       831.387424    CON17     1.000000    
    z[2,3]    OBJ       685.723341    CON18     1.000000    
    z[3,1]    OBJ       586.543762    CON19     1.000000    
    z[3,2]    OBJ       718.394533    CON20     1.000000    
    z[3,3]    OBJ       872.019669    CON21     1.000000    
    z[4,1]    OBJ       785.741837    CON22     1.000000    
    z[4,2]    OBJ       503.367143    CON23     1.000000    
    z[4,3]    OBJ       505.362200    CON24     1.000000    
    MARKER    'MARKER'                 'INTEND'
RHS
    RHS       CON1      -0.000000     CON2      -0.000000   
    RHS       CON3      -0.000000     CON4      -0.000000   
    RHS       CON5      -0.000000     CON6      -0.000000   
    RHS       CON7      -0.000000     CON8      -0.000000   
    RHS       CON9      -0.000000     CON10     -0.000000   
    RHS       CON11     -0.000000     CON12     -0.000000   
    RHS       CON13     1.000000      CON14     1.000000    
    RHS       CON15     1.000000      CON16     1.000000    
    RHS       CON17     1.000000      CON18     1.000000    
    RHS       CON19     1.000000      CON20     1.000000    
    RHS       CON21     1.000000      CON22     1.000000    
    RHS       CON23     1.000000      CON24     1.000000    
BOUNDS
 BV BOUND     u[1,1]  
 BV BOUND     u[1,2]  
 BV BOUND     u[1,3]  
 BV BOUND     u[2,1]  
 BV BOUND     u[2,2]  
 BV BOUND     u[2,3]  
 BV BOUND     y[1,1,1]
 BV BOUND     y[1,1,2]
 BV BOUND     y[1,1,3]
 BV BOUND     y[1,2,1]
 BV BOUND     y[1,2,2]
 BV BOUND     y[1,2,3]
 BV BOUND     y[1,3,1]
 BV BOUND     y[1,3,2]
 BV BOUND     y[1,3,3]
 BV BOUND     y[1,4,1]
 BV BOUND     y[1,4,2]
 BV BOUND     y[1,4,3]
 BV BOUND     y[2,1,1]
 BV BOUND     y[2,1,2]
 BV BOUND     y[2,1,3]
 BV BOUND     y[2,2,1]
 BV BOUND     y[2,2,2]
 BV BOUND     y[2,2,3]
 BV BOUND     y[2,3,1]
 BV BOUND     y[2,3,2]
 BV BOUND     y[2,3,3]
 BV BOUND     y[2,4,1]
 BV BOUND     y[2,4,2]
 BV BOUND     y[2,4,3]
 BV BOUND     z[1,1]  
 BV BOUND     z[1,2]  
 BV BOUND     z[1,3]  
 BV BOUND     z[2,1]  
 BV BOUND     z[2,2]  
 BV BOUND     z[2,3]  
 BV BOUND     z[3,1]  
 BV BOUND     z[3,2]  
 BV BOUND     z[3,3]  
 BV BOUND     z[4,1]  
 BV BOUND     z[4,2]  
 BV BOUND     z[4,3]  
ENDATA
